SECTION Graph
Nodes 609
Edges 932
E 2 3 5
E 4 5 5
E 5 6 5
E 6 7 5
E 7 8 5
E 8 9 5
E 9 10 5
E 11 12 5
E 12 13 5
E 13 14 5
E 14 15 5
E 15 16 5
E 16 17 5
E 17 18 5
E 18 19 5
E 19 20 5
E 20 21 5
E 21 22 5
E 22 23 5
E 23 24 5
E 24 25 5
E 25 26 5
E 26 27 5
E 27 28 5
E 28 29 5
E 29 30 5
E 1 33 13
E 2 35 13
E 3 36 13
E 4 40 13
E 5 41 13
E 7 42 13
E 10 45 13
E 11 46 13
E 12 47 13
E 13 48 13
E 29 49 13
E 30 50 13
E 31 32 5
E 32 33 5
E 33 34 5
E 34 35 5
E 35 36 5
E 36 37 5
E 37 38 5
E 38 39 5
E 39 40 5
E 40 41 5
E 42 43 5
E 43 44 5
E 44 45 5
E 46 47 5
E 47 48 5
E 49 50 5
E 31 51 13
E 32 52 13
E 33 53 13
E 34 54 13
E 35 55 13
E 36 56 13
E 37 57 13
E 38 58 13
E 39 59 13
E 40 60 13
E 41 61 13
E 42 63 13
E 43 64 13
E 44 65 13
E 45 66 13
E 46 69 13
E 48 70 13
E 49 71 13
E 50 72 13
E 51 52 5
E 52 53 5
E 53 54 5
E 54 55 5
E 55 56 5
E 56 57 5
E 57 58 5
E 58 59 5
E 59 60 5
E 60 61 5
E 61 62 5
E 62 63 5
E 63 64 5
E 64 65 5
E 65 66 5
E 66 67 5
E 67 68 5
E 68 69 5
E 71 72 5
E 51 73 13
E 53 74 13
E 57 75 13
E 58 76 13
E 59 77 13
E 61 78 13
E 62 79 13
E 66 80 13
E 67 81 13
E 68 82 13
E 69 83 13
E 70 85 13
E 71 101 13
E 72 102 13
E 75 76 5
E 76 77 5
E 78 79 5
E 80 81 5
E 81 82 5
E 82 83 5
E 83 84 5
E 84 85 5
E 85 86 5
E 86 87 5
E 87 88 5
E 88 89 5
E 89 90 5
E 90 91 5
E 91 92 5
E 92 93 5
E 93 94 5
E 94 95 5
E 95 96 5
E 96 97 5
E 97 98 5
E 98 99 5
E 99 100 5
E 100 101 5
E 101 102 5
E 73 103 13
E 74 105 13
E 75 109 13
E 76 110 13
E 77 111 13
E 78 113 13
E 79 114 13
E 80 118 13
E 83 119 13
E 85 120 13
E 86 121 13
E 87 122 13
E 88 123 13
E 89 124 13
E 90 125 13
E 92 126 13
E 93 127 13
E 94 128 13
E 95 129 13
E 96 130 13
E 97 131 13
E 98 132 13
E 99 133 13
E 100 134 13
E 101 135 13
E 102 136 13
E 103 104 5
E 104 105 5
E 105 106 5
E 106 107 5
E 107 108 5
E 108 109 5
E 109 110 5
E 110 111 5
E 111 112 5
E 112 113 5
E 113 114 5
E 114 115 5
E 115 116 5
E 116 117 5
E 117 118 5
E 120 121 5
E 121 122 5
E 122 123 5
E 123 124 5
E 124 125 5
E 126 127 5
E 127 128 5
E 128 129 5
E 129 130 5
E 130 131 5
E 131 132 5
E 132 133 5
E 133 134 5
E 134 135 5
E 135 136 5
E 105 139 13
E 106 140 13
E 107 141 13
E 108 142 13
E 109 143 13
E 110 144 13
E 111 145 13
E 112 146 13
E 114 147 13
E 118 148 13
E 119 149 13
E 120 151 13
E 121 152 13
E 122 153 13
E 123 154 13
E 124 155 13
E 125 156 13
E 126 158 13
E 127 159 13
E 128 160 13
E 129 161 13
E 130 162 13
E 131 163 13
E 132 164 13
E 133 165 13
E 134 166 13
E 135 167 13
E 136 168 13
E 137 138 5
E 138 139 5
E 139 140 5
E 140 141 5
E 141 142 5
E 142 143 5
E 143 144 5
E 144 145 5
E 145 146 5
E 149 150 5
E 150 151 5
E 151 152 5
E 152 153 5
E 153 154 5
E 154 155 5
E 155 156 5
E 156 157 5
E 157 158 5
E 158 159 5
E 159 160 5
E 160 161 5
E 161 162 5
E 162 163 5
E 163 164 5
E 164 165 5
E 165 166 5
E 166 167 5
E 167 168 5
E 137 169 13
E 139 170 13
E 143 171 13
E 144 172 13
E 145 173 13
E 146 174 13
E 147 176 13
E 148 180 13
E 149 183 13
E 150 184 13
E 151 185 13
E 167 186 13
E 168 187 13
E 171 172 5
E 172 173 5
E 173 174 5
E 174 175 5
E 175 176 5
E 176 177 5
E 177 178 5
E 178 179 5
E 179 180 5
E 180 181 5
E 181 182 5
E 182 183 5
E 183 184 5
E 184 185 5
E 186 187 5
E 169 188 13
E 170 190 13
E 171 194 13
E 172 195 13
E 173 196 13
E 174 197 13
E 178 198 13
E 179 199 13
E 180 200 13
E 181 201 13
E 182 202 13
E 183 203 13
E 184 204 13
E 185 205 13
E 186 206 13
E 187 207 13
E 188 189 5
E 189 190 5
E 190 191 5
E 191 192 5
E 192 193 5
E 193 194 5
E 194 195 5
E 195 196 5
E 196 197 5
E 198 199 5
E 199 200 5
E 200 201 5
E 201 202 5
E 202 203 5
E 203 204 5
E 204 205 5
E 206 207 5
E 189 209 13
E 190 210 13
E 191 211 13
E 192 212 13
E 193 213 13
E 197 214 13
E 198 218 13
E 199 219 13
E 200 220 13
E 201 221 13
E 202 222 13
E 203 223 13
E 204 224 13
E 205 225 13
E 206 241 13
E 207 242 13
E 208 209 5
E 209 210 5
E 210 211 5
E 211 212 5
E 212 213 5
E 214 215 5
E 215 216 5
E 216 217 5
E 217 218 5
E 218 219 5
E 219 220 5
E 220 221 5
E 221 222 5
E 222 223 5
E 223 224 5
E 224 225 5
E 225 226 5
E 226 227 5
E 227 228 5
E 228 229 5
E 229 230 5
E 230 231 5
E 231 232 5
E 232 233 5
E 233 234 5
E 234 235 5
E 235 236 5
E 236 237 5
E 237 238 5
E 238 239 5
E 239 240 5
E 240 241 5
E 241 242 5
E 210 245 13
E 212 246 13
E 213 247 13
E 214 251 13
E 215 252 13
E 216 253 13
E 217 254 13
E 233 255 13
E 241 256 13
E 242 257 13
E 243 244 5
E 244 245 5
E 246 247 5
E 247 248 5
E 248 249 5
E 249 250 5
E 250 251 5
E 251 252 5
E 252 253 5
E 253 254 5
E 256 257 5
E 243 258 13
E 244 259 13
E 245 260 13
E 246 262 13
E 247 263 13
E 251 264 13
E 252 265 13
E 253 266 13
E 254 267 13
E 255 268 13
E 256 269 13
E 257 270 13
E 258 259 5
E 259 260 5
E 260 261 5
E 261 262 5
E 262 263 5
E 264 265 5
E 265 266 5
E 266 267 5
E 269 270 5
E 258 271 13
E 259 272 13
E 260 273 13
E 261 274 13
E 263 275 13
E 264 279 13
E 265 280 13
E 266 281 13
E 267 282 13
E 268 298 13
E 269 306 13
E 270 307 13
E 271 272 5
E 272 273 5
E 273 274 5
E 275 276 5
E 276 277 5
E 277 278 5
E 278 279 5
E 279 280 5
E 280 281 5
E 281 282 5
E 282 283 5
E 283 284 5
E 284 285 5
E 285 286 5
E 286 287 5
E 287 288 5
E 288 289 5
E 289 290 5
E 290 291 5
E 291 292 5
E 292 293 5
E 293 294 5
E 294 295 5
E 295 296 5
E 296 297 5
E 297 298 5
E 298 299 5
E 299 300 5
E 300 301 5
E 301 302 5
E 302 303 5
E 303 304 5
E 304 305 5
E 305 306 5
E 306 307 5
E 271 308 13
E 273 309 13
E 274 310 13
E 275 312 13
E 276 313 13
E 277 314 13
E 278 315 13
E 279 316 13
E 280 317 13
E 281 318 13
E 282 319 13
E 283 320 13
E 284 321 13
E 285 322 13
E 286 323 13
E 287 324 13
E 288 325 13
E 289 326 13
E 290 327 13
E 291 328 13
E 292 329 13
E 293 330 13
E 294 331 13
E 295 332 13
E 296 333 13
E 297 334 13
E 298 335 13
E 299 336 13
E 300 337 13
E 301 338 13
E 302 339 13
E 303 340 13
E 304 341 13
E 305 342 13
E 306 343 13
E 307 344 13
E 309 310 5
E 310 311 5
E 311 312 5
E 312 313 5
E 313 314 5
E 314 315 5
E 315 316 5
E 316 317 5
E 317 318 5
E 318 319 5
E 319 320 5
E 320 321 5
E 321 322 5
E 322 323 5
E 323 324 5
E 324 325 5
E 325 326 5
E 326 327 5
E 327 328 5
E 328 329 5
E 329 330 5
E 330 331 5
E 331 332 5
E 332 333 5
E 333 334 5
E 334 335 5
E 335 336 5
E 336 337 5
E 337 338 5
E 338 339 5
E 339 340 5
E 340 341 5
E 341 342 5
E 342 343 5
E 343 344 5
E 308 345 13
E 309 347 13
E 311 348 13
E 312 349 13
E 313 350 13
E 314 351 13
E 315 352 13
E 319 353 13
E 323 354 13
E 324 355 13
E 325 356 13
E 333 357 13
E 334 358 13
E 338 359 13
E 339 360 13
E 340 361 13
E 341 362 13
E 342 363 13
E 343 364 13
E 344 365 13
E 345 346 5
E 346 347 5
E 348 349 5
E 349 350 5
E 350 351 5
E 351 352 5
E 354 355 5
E 355 356 5
E 357 358 5
E 359 360 5
E 360 361 5
E 361 362 5
E 362 363 5
E 363 364 5
E 364 365 5
E 345 366 13
E 346 367 13
E 347 368 13
E 348 370 13
E 352 371 13
E 353 375 13
E 354 379 13
E 356 380 13
E 357 381 13
E 358 382 13
E 359 386 13
E 360 387 13
E 361 388 13
E 362 389 13
E 363 390 13
E 365 391 13
E 366 367 5
E 367 368 5
E 368 369 5
E 369 370 5
E 371 372 5
E 372 373 5
E 373 374 5
E 374 375 5
E 375 376 5
E 376 377 5
E 377 378 5
E 378 379 5
E 381 382 5
E 382 383 5
E 383 384 5
E 384 385 5
E 385 386 5
E 386 387 5
E 387 388 5
E 388 389 5
E 389 390 5
E 366 392 13
E 367 393 13
E 368 394 13
E 370 395 13
E 371 399 13
E 372 400 13
E 373 401 13
E 374 402 13
E 375 403 13
E 376 404 13
E 377 405 13
E 378 406 13
E 379 407 13
E 380 409 13
E 381 417 13
E 384 418 13
E 386 419 13
E 387 420 13
E 388 421 13
E 389 422 13
E 390 423 13
E 391 424 13
E 392 393 5
E 393 394 5
E 395 396 5
E 396 397 5
E 397 398 5
E 398 399 5
E 399 400 5
E 400 401 5
E 401 402 5
E 402 403 5
E 403 404 5
E 404 405 5
E 405 406 5
E 406 407 5
E 407 408 5
E 408 409 5
E 409 410 5
E 410 411 5
E 411 412 5
E 412 413 5
E 413 414 5
E 414 415 5
E 415 416 5
E 416 417 5
E 419 420 5
E 420 421 5
E 421 422 5
E 422 423 5
E 392 425 13
E 393 426 13
E 394 427 13
E 395 429 13
E 396 430 13
E 397 431 13
E 398 432 13
E 399 433 13
E 402 436 13
E 403 437 13
E 404 438 13
E 405 439 13
E 406 440 13
E 408 441 13
E 409 442 13
E 410 443 13
E 411 444 13
E 412 445 13
E 413 446 13
E 414 447 13
E 415 448 13
E 416 449 13
E 417 450 13
E 418 451 13
E 419 452 13
E 423 453 13
E 424 455 13
E 425 426 5
E 426 427 5
E 427 428 5
E 428 429 5
E 429 430 5
E 430 431 5
E 431 432 5
E 432 433 5
E 433 434 5
E 434 435 5
E 435 436 5
E 436 437 5
E 437 438 5
E 438 439 5
E 439 440 5
E 441 442 5
E 442 443 5
E 443 444 5
E 444 445 5
E 445 446 5
E 446 447 5
E 447 448 5
E 448 449 5
E 449 450 5
E 453 454 5
E 454 455 5
E 427 456 13
E 428 457 13
E 429 458 13
E 430 459 13
E 433 462 13
E 434 463 13
E 435 464 13
E 436 465 13
E 437 466 13
E 438 467 13
E 439 468 13
E 440 469 13
E 441 471 13
E 442 472 13
E 446 473 13
E 447 474 13
E 448 475 13
E 449 476 13
E 450 477 13
E 451 480 13
E 452 482 13
E 453 486 13
E 454 487 13
E 455 488 13
E 456 457 5
E 457 458 5
E 458 459 5
E 459 460 5
E 460 461 5
E 461 462 5
E 462 463 5
E 463 464 5
E 464 465 5
E 465 466 5
E 466 467 5
E 467 468 5
E 468 469 5
E 469 470 5
E 470 471 5
E 471 472 5
E 473 474 5
E 474 475 5
E 475 476 5
E 476 477 5
E 477 478 5
E 478 479 5
E 479 480 5
E 480 481 5
E 481 482 5
E 482 483 5
E 483 484 5
E 484 485 5
E 485 486 5
E 486 487 5
E 487 488 5
E 456 491 13
E 458 492 13
E 462 493 13
E 463 494 13
E 465 495 13
E 468 498 13
E 471 501 13
E 472 502 13
E 473 506 13
E 474 507 13
E 475 508 13
E 476 509 13
E 477 510 13
E 478 511 13
E 479 512 13
E 480 513 13
E 481 514 13
E 482 515 13
E 483 516 13
E 484 517 13
E 485 518 13
E 486 519 13
E 488 520 13
E 489 490 5
E 490 491 5
E 493 494 5
E 495 496 5
E 496 497 5
E 497 498 5
E 498 499 5
E 499 500 5
E 500 501 5
E 501 502 5
E 502 503 5
E 503 504 5
E 504 505 5
E 505 506 5
E 506 507 5
E 507 508 5
E 508 509 5
E 509 510 5
E 510 511 5
E 511 512 5
E 512 513 5
E 513 514 5
E 514 515 5
E 515 516 5
E 516 517 5
E 517 518 5
E 518 519 5
E 489 521 13
E 490 522 13
E 491 523 13
E 492 525 13
E 493 529 13
E 494 530 13
E 495 532 13
E 496 533 13
E 497 534 13
E 498 535 13
E 499 536 13
E 500 537 13
E 501 538 13
E 502 539 13
E 503 540 13
E 504 541 13
E 505 542 13
E 506 543 13
E 508 544 13
E 510 545 13
E 518 546 13
E 519 547 13
E 520 548 13
E 521 522 5
E 522 523 5
E 523 524 5
E 524 525 5
E 525 526 5
E 526 527 5
E 527 528 5
E 528 529 5
E 529 530 5
E 530 531 5
E 531 532 5
E 532 533 5
E 533 534 5
E 534 535 5
E 535 536 5
E 536 537 5
E 537 538 5
E 538 539 5
E 539 540 5
E 540 541 5
E 541 542 5
E 542 543 5
E 546 547 5
E 521 549 13
E 525 550 13
E 526 551 13
E 527 552 13
E 528 553 13
E 529 554 13
E 532 557 13
E 534 558 13
E 535 559 13
E 539 560 13
E 541 561 13
E 542 562 13
E 543 563 13
E 544 565 13
E 545 567 13
E 546 568 13
E 547 569 13
E 548 571 13
E 550 551 5
E 551 552 5
E 552 553 5
E 553 554 5
E 554 555 5
E 555 556 5
E 556 557 5
E 558 559 5
E 561 562 5
E 562 563 5
E 563 564 5
E 564 565 5
E 565 566 5
E 566 567 5
E 568 569 5
E 569 570 5
E 570 571 5
E 549 572 13
E 550 576 13
E 551 577 13
E 552 578 13
E 553 579 13
E 554 580 13
E 555 581 13
E 556 582 13
E 557 583 13
E 558 585 13
E 559 586 13
E 560 590 13
E 561 592 13
E 562 593 13
E 563 594 13
E 564 595 13
E 567 598 13
E 568 606 13
E 569 607 13
E 570 608 13
E 571 609 13
E 572 573 5
E 573 574 5
E 574 575 5
E 575 576 5
E 576 577 5
E 577 578 5
E 578 579 5
E 579 580 5
E 580 581 5
E 581 582 5
E 582 583 5
E 583 584 5
E 584 585 5
E 585 586 5
E 586 587 5
E 587 588 5
E 588 589 5
E 589 590 5
E 590 591 5
E 591 592 5
E 592 593 5
E 593 594 5
E 594 595 5
E 595 596 5
E 596 597 5
E 597 598 5
E 598 599 5
E 599 600 5
E 600 601 5
E 601 602 5
E 602 603 5
E 603 604 5
E 604 605 5
E 605 606 5
E 606 607 5
E 607 608 5
E 608 609 5
END

SECTION Terminals
Terminals 10
T 70
T 189
T 205
T 267
T 268
T 380
T 423
T 451
T 547
T 567
END

EOF
